221268
221268
221268
221268
221268
221268
221268
221100
221100
221100
217640
217640
214840
214840
214840
214840
213281
213281
211720
209295
209295
209295
209295
208425
208425
206892
206892
205703
205703
204202
204202
204202
201584
201584
194955
194955
194955
194955
194955
194955
194955
190877
190877
190630
190630
190630
189054
189054
189054
187201
187201
187201
183976
183976
183473
183473
183473
183473
183473
183163
183163
180870
180870
180870
180870
180870
177333
177333
177333
177333
177333
174602
174602
174602
174602
174602
174602
173696
172576
172576
172576
172576
172576
171191
171191
171191
171191
171191
169679
169679
168164
167654
167654
166667
166667
166667
165465
165465
165465
165465
